%%% static parameters %%%
timespan = 1;
Fact = [2];
Distr1 = [5];
Distr2 = [10];
Clients_N = [100];
Demand_W = [15];
Lt0 = [4];
Lt1 = [4];
SS_ = [0.85];
DS_D = [8];
K = [200];
MA = [500];
%%% dynamic parameters %%%
lost_ratio_sales_ret_th = 0.20369018614943335;
lost_ratio_sales_ret_w = 26;
lost_ratio_sales_dis_th = 0.13279633511567712;
lost_ratio_sales_dis_w = 8;
lost_ratio_sales_fac_th = 0.5421485011469845;
lost_ratio_sales_fac_w = 97;
stock_customer_MA_mean_relative_th = 0.5102134374912923;
stock_customer_MA_mean_relative_w = 1;
stock_distributor_MA_mean_relative_th = 0.8696141487858342;
stock_distributor_MA_mean_relative_w = 59;
stock_retailer_MA_mean_relative_th = 0.5284151771315831;
stock_retailer_MA_mean_relative_w = 11;
stock_factory_MA_mean_relative_th = 0.3742646056898613;
stock_factory_MA_mean_relative_w = 90;
